10
0 22 18 29 25 40 32 20 26 35
22 0 28 32 16 38 25 21 29 36
18 28 0 24 15 31 23 15 20 34
29 32 24 0 21 29 35 27 30 40
25 16 15 21 0 25 30 28 22 33
40 38 31 29 25 0 45 36 44 50
32 25 23 35 30 45 0 37 40 42
20 21 15 27 28 36 37 0 25 33
26 29 20 30 22 44 40 25 0 39
35 36 34 40 33 50 42 33 39 0
0       500
440     1220
600     850
60      600
380     1050
500     840
450     900
530     700
150     750
30      850
